start=1;

limit = 6;

n = 50;

m=[|-1,-1,1,-1,-1,11,-1,17,12,20,4,-1,4,12,18,-1,-1,-1,11,6,14,1,8,-1,-1,9,-1,-1,-1,-1,14,-1,-1,-1,3,-1,-1,-1,-1,-1,-1,9,10,-1,15,-1,-1,-1,-1,-1,
|19,-1,14,19,8,-1,2,16,-1,1,-1,-1,-1,3,-1,4,11,-1,9,9,5,-1,8,5,-1,-1,-1,19,-1,16,7,-1,-1,4,-1,-1,5,2,3,-1,19,-1,8,3,-1,0,-1,-1,-1,13,
|17,-1,-1,7,0,6,18,8,6,-1,-1,-1,8,-1,4,-1,-1,-1,-1,-1,16,19,14,7,0,-1,-1,-1,18,-1,12,5,11,3,20,-1,8,-1,-1,9,12,-1,17,-1,-1,19,19,18,9,9,
|16,0,9,-1,-1,17,19,-1,-1,-1,20,-1,-1,-1,12,-1,19,6,20,-1,-1,-1,16,9,-1,20,9,3,5,-1,20,-1,19,-1,3,-1,13,-1,-1,-1,15,-1,20,5,-1,5,6,-1,-1,14,
|0,-1,-1,7,-1,-1,0,-1,18,5,14,0,3,12,-1,-1,4,-1,-1,-1,15,5,19,-1,-1,19,1,6,3,-1,-1,2,12,-1,3,6,9,8,-1,-1,4,-1,-1,-1,18,-1,-1,-1,20,1,
|-1,18,3,3,-1,-1,2,-1,16,15,-1,4,-1,16,-1,1,-1,-1,9,-1,7,-1,11,-1,-1,18,9,-1,-1,6,-1,-1,-1,3,9,13,-1,-1,-1,-1,6,5,8,20,19,13,-1,12,-1,-1,
|-1,-1,-1,15,20,8,-1,1,-1,-1,-1,1,-1,-1,14,-1,2,5,-1,-1,3,16,-1,-1,-1,0,18,-1,9,-1,5,9,-1,-1,-1,-1,11,1,-1,8,-1,5,-1,20,-1,-1,-1,14,-1,5,
|-1,13,6,-1,18,18,9,-1,-1,15,4,13,-1,-1,10,-1,-1,4,-1,-1,2,20,11,-1,10,1,-1,-1,-1,-1,-1,-1,-1,16,7,1,-1,-1,-1,4,-1,13,-1,-1,4,18,-1,-1,-1,-1,
|-1,-1,-1,-1,-1,-1,12,7,-1,-1,-1,17,-1,-1,-1,-1,-1,4,-1,-1,15,3,0,-1,-1,-1,-1,14,20,-1,11,13,-1,4,18,-1,-1,3,-1,-1,-1,10,14,-1,4,12,0,-1,20,-1,
|5,0,-1,13,16,10,-1,9,-1,-1,-1,2,-1,-1,12,4,12,-1,-1,13,-1,6,-1,13,18,0,-1,4,-1,-1,20,1,-1,-1,8,-1,9,0,8,3,-1,-1,-1,19,8,12,-1,0,11,-1,
|-1,12,-1,-1,-1,15,11,-1,4,-1,-1,10,-1,-1,-1,6,-1,-1,-1,-1,18,-1,-1,3,14,14,15,2,0,-1,-1,-1,-1,-1,11,17,-1,8,18,7,-1,9,15,14,-1,-1,-1,17,9,-1,
|-1,4,-1,12,-1,18,15,-1,5,-1,-1,-1,20,-1,-1,-1,4,13,14,0,-1,-1,-1,6,15,0,4,-1,-1,1,-1,7,-1,5,-1,1,-1,-1,9,7,6,-1,-1,-1,11,18,-1,4,10,-1,
|4,9,-1,8,6,17,-1,-1,-1,17,8,8,-1,12,18,3,-1,-1,-1,-1,2,-1,-1,2,17,-1,11,20,5,-1,-1,-1,-1,6,-1,-1,-1,-1,-1,-1,-1,-1,3,15,-1,-1,5,-1,17,9,
|16,0,-1,-1,10,3,6,3,-1,17,-1,-1,-1,-1,-1,-1,6,-1,14,15,1,15,-1,-1,-1,3,13,-1,7,19,-1,-1,-1,17,3,20,10,1,-1,-1,6,-1,-1,-1,9,-1,-1,-1,-1,-1,
|18,13,-1,20,-1,3,19,6,17,-1,19,-1,-1,9,-1,10,-1,17,-1,15,7,2,9,3,-1,-1,12,-1,-1,-1,-1,20,7,-1,8,-1,-1,3,-1,9,-1,19,-1,12,13,14,-1,19,-1,-1,
|-1,6,-1,10,10,13,-1,0,-1,-1,-1,-1,-1,3,12,-1,5,10,-1,13,18,12,5,1,3,2,-1,7,-1,-1,-1,-1,11,-1,16,-1,20,16,2,2,-1,3,14,3,12,-1,2,14,-1,-1,
|4,11,5,6,6,-1,6,20,-1,-1,11,-1,10,2,12,-1,-1,-1,-1,5,1,-1,6,-1,12,18,-1,-1,8,18,20,-1,-1,13,-1,-1,0,16,8,4,-1,6,-1,-1,2,-1,-1,-1,-1,-1,
|-1,-1,-1,-1,-1,4,7,10,7,-1,17,-1,1,-1,-1,-1,12,-1,-1,-1,0,7,-1,1,-1,-1,17,-1,-1,-1,4,-1,18,-1,12,-1,-1,0,10,3,20,-1,15,4,-1,-1,-1,-1,3,-1,
|-1,16,-1,-1,9,-1,-1,-1,-1,6,4,-1,2,1,15,-1,-1,14,-1,-1,1,4,-1,11,20,18,19,-1,-1,15,-1,-1,14,-1,-1,0,6,6,-1,18,-1,2,0,3,16,3,-1,12,-1,0,
|-1,-1,-1,4,11,5,-1,-1,-1,-1,-1,6,-1,17,-1,2,8,8,19,-1,11,-1,-1,20,-1,12,-1,9,-1,-1,19,10,-1,4,7,9,14,1,-1,7,-1,18,-1,12,12,-1,-1,5,-1,-1,
|-1,-1,2,11,-1,11,-1,10,7,16,-1,5,3,-1,-1,12,-1,15,-1,14,-1,17,-1,-1,-1,-1,7,-1,16,-1,17,-1,-1,12,-1,6,19,-1,10,8,11,-1,-1,-1,-1,-1,-1,-1,7,-1,
|-1,1,14,16,14,-1,-1,-1,0,-1,14,-1,-1,-1,8,-1,3,18,4,-1,15,-1,16,16,3,-1,-1,19,20,4,-1,-1,-1,-1,6,-1,-1,-1,-1,-1,3,20,-1,-1,-1,-1,9,19,-1,12,
|20,-1,14,6,7,17,-1,11,-1,-1,-1,2,13,-1,3,-1,-1,-1,-1,5,2,-1,-1,2,0,17,-1,16,17,-1,-1,-1,-1,11,-1,3,-1,-1,-1,-1,4,5,0,-1,18,9,-1,-1,-1,-1,
|-1,-1,9,12,5,-1,2,14,-1,-1,-1,-1,19,-1,-1,13,-1,-1,-1,2,9,11,-1,-1,-1,-1,-1,-1,-1,-1,0,-1,0,19,4,1,20,8,5,17,3,0,15,18,16,-1,-1,7,-1,-1,
|17,2,-1,-1,12,-1,9,-1,1,5,-1,-1,13,-1,11,16,10,-1,-1,-1,5,2,-1,-1,-1,3,-1,-1,-1,-1,-1,10,3,-1,6,6,-1,-1,-1,-1,5,-1,3,1,-1,14,-1,-1,-1,-1,
|-1,3,11,1,-1,18,19,15,19,-1,-1,-1,20,-1,-1,-1,6,1,0,11,16,-1,3,17,-1,-1,-1,6,14,5,-1,18,10,12,15,18,-1,-1,-1,-1,-1,-1,-1,7,-1,13,19,-1,1,11,
|12,1,-1,-1,15,-1,8,-1,-1,-1,-1,14,-1,12,-1,-1,17,-1,12,11,20,0,-1,-1,3,-1,-1,-1,0,-1,-1,-1,7,-1,16,9,-1,17,-1,-1,-1,20,-1,-1,-1,-1,-1,16,-1,4,
|18,20,-1,-1,-1,5,-1,14,18,-1,18,-1,-1,17,-1,19,5,6,-1,20,17,17,-1,-1,-1,-1,-1,-1,9,9,10,-1,5,9,20,5,-1,14,-1,14,-1,17,9,-1,-1,12,-1,-1,-1,-1,
|13,9,17,16,-1,-1,1,-1,-1,16,7,-1,-1,4,3,-1,14,15,-1,15,-1,-1,-1,-1,6,12,3,-1,-1,-1,-1,-1,-1,17,-1,-1,-1,2,14,-1,-1,6,-1,2,-1,11,-1,9,-1,-1,
|-1,19,-1,16,-1,10,-1,2,16,12,-1,12,13,-1,1,14,14,-1,1,-1,5,-1,-1,-1,10,-1,15,2,5,-1,2,14,-1,-1,8,-1,-1,6,16,-1,0,-1,16,-1,-1,12,3,-1,3,12,
|-1,1,9,-1,0,-1,-1,-1,-1,1,-1,-1,13,12,-1,-1,6,-1,-1,11,-1,-1,-1,10,-1,-1,-1,-1,9,15,-1,3,7,18,-1,8,13,2,-1,15,-1,-1,-1,-1,5,12,15,2,-1,1,
|-1,-1,3,5,-1,-1,12,-1,10,-1,-1,-1,-1,-1,-1,1,-1,10,-1,9,15,17,-1,-1,0,11,-1,0,1,-1,14,-1,3,1,-1,-1,13,20,-1,-1,3,-1,-1,-1,-1,-1,15,-1,5,-1,
|-1,13,-1,-1,20,6,3,-1,10,11,6,16,-1,-1,-1,-1,1,17,0,6,-1,8,8,18,1,-1,-1,13,-1,9,-1,13,-1,8,-1,8,-1,-1,-1,-1,12,1,-1,17,7,-1,-1,-1,-1,-1,
|-1,-1,-1,18,7,-1,13,9,2,-1,-1,11,-1,8,-1,-1,-1,-1,-1,1,-1,-1,-1,-1,-1,9,5,4,4,10,0,5,-1,-1,-1,1,-1,6,1,-1,-1,-1,-1,10,-1,-1,17,7,7,0,
|20,-1,6,17,14,12,-1,-1,-1,9,-1,0,7,17,-1,-1,-1,17,-1,4,-1,8,-1,-1,-1,3,16,2,4,5,19,0,1,1,-1,-1,-1,-1,17,-1,-1,16,13,5,11,11,11,3,4,1,
|-1,-1,-1,-1,-1,18,-1,-1,14,-1,-1,7,-1,9,-1,-1,-1,-1,0,-1,-1,1,12,19,16,-1,20,19,7,20,20,-1,2,-1,-1,-1,19,-1,-1,20,2,-1,-1,-1,-1,1,-1,0,0,-1,
|6,17,13,7,-1,-1,13,17,-1,15,-1,-1,14,16,-1,3,0,-1,-1,-1,3,-1,-1,-1,-1,-1,-1,18,9,2,-1,-1,0,-1,-1,-1,-1,14,5,-1,-1,-1,7,-1,-1,-1,17,-1,-1,13,
|6,1,8,11,-1,18,13,1,9,4,12,-1,-1,-1,-1,14,-1,-1,0,13,0,4,-1,-1,-1,16,-1,-1,-1,3,-1,-1,9,1,1,-1,17,-1,-1,6,-1,-1,5,14,8,20,6,11,3,14,
|-1,-1,-1,8,-1,13,-1,8,2,14,13,10,7,-1,-1,8,11,7,9,-1,12,-1,8,19,19,-1,17,-1,-1,17,16,-1,-1,1,-1,-1,20,14,-1,-1,-1,3,1,-1,5,14,-1,-1,4,-1,
|3,0,-1,5,17,-1,18,8,-1,-1,-1,-1,7,-1,10,11,-1,4,17,-1,14,6,10,-1,1,4,8,-1,-1,-1,9,-1,6,17,-1,11,-1,-1,-1,-1,15,-1,-1,-1,15,2,-1,13,-1,18,
|4,-1,14,-1,-1,-1,-1,0,-1,-1,17,-1,-1,-1,-1,13,-1,-1,-1,19,-1,-1,10,5,15,-1,-1,18,4,-1,-1,14,-1,15,-1,17,20,17,-1,-1,-1,9,-1,3,2,-1,2,-1,-1,-1,
|11,-1,19,20,-1,2,8,3,-1,-1,-1,8,-1,16,-1,-1,-1,-1,19,-1,-1,-1,0,-1,1,-1,-1,-1,4,6,-1,6,8,20,-1,14,-1,6,-1,-1,14,-1,20,9,-1,-1,-1,3,11,-1,
|-1,14,3,19,-1,-1,19,-1,2,-1,-1,14,-1,10,15,6,6,-1,20,16,16,-1,-1,-1,-1,19,20,19,5,15,11,-1,7,-1,17,-1,-1,18,-1,-1,15,-1,-1,6,-1,4,11,12,-1,1,
|20,15,8,16,7,1,-1,12,1,-1,20,-1,1,1,11,5,-1,-1,18,0,-1,-1,-1,-1,-1,-1,-1,-1,20,-1,-1,-1,-1,-1,11,11,-1,4,6,-1,-1,-1,7,-1,-1,-1,-1,2,2,-1,
|-1,4,-1,-1,8,-1,8,12,-1,-1,-1,4,-1,-1,20,18,-1,-1,9,10,9,17,-1,18,2,-1,-1,-1,-1,-1,2,1,3,2,15,-1,-1,4,-1,16,15,-1,13,-1,-1,4,-1,-1,15,2,
|-1,1,-1,-1,-1,1,0,19,-1,19,-1,11,8,-1,19,14,5,-1,-1,-1,7,-1,-1,-1,16,7,15,-1,-1,20,9,-1,9,-1,-1,14,8,17,12,15,-1,0,17,-1,4,-1,-1,-1,-1,-1,
|17,-1,0,10,-1,7,-1,13,15,-1,5,-1,-1,-1,-1,-1,-1,10,5,10,10,-1,9,-1,1,15,-1,-1,19,12,-1,-1,-1,2,18,-1,-1,-1,5,-1,-1,-1,-1,-1,13,4,-1,5,-1,18,
|3,-1,-1,19,16,6,19,6,-1,13,19,-1,8,-1,13,17,1,12,-1,-1,11,17,20,14,-1,4,9,19,-1,-1,16,4,10,2,15,18,-1,4,-1,-1,9,-1,-1,-1,16,13,6,-1,1,7,
|0,12,-1,-1,-1,-1,-1,9,9,10,-1,10,-1,-1,-1,20,2,7,-1,-1,-1,9,-1,-1,9,19,-1,-1,-1,11,-1,-1,10,9,-1,13,-1,4,-1,11,6,20,1,19,-1,6,-1,-1,-1,-1,
|-1,-1,-1,-1,-1,2,-1,-1,-1,-1,9,19,-1,4,16,-1,-1,13,-1,-1,-1,7,7,3,9,-1,16,-1,-1,19,7,-1,-1,-1,-1,19,19,-1,15,-1,0,20,19,0,3,-1,13,7,-1,-1,
|];